(set-logic QF_SLAH)

(declare-datatypes ((data_t 0)) (((c_data_t (sz Int)))))

(declare-heap (Int data_t))

(define-fun hck ((?x Int) (?y Int) (?v Int)) Bool
	(and
		(>= (- ?y ?x) 2) (<= (- ?y ?x) ?v)
		(sep (pto ?x (c_data_t (- ?y ?x))) (blk (+ ?x 1) ?y))
))

(define-fun-rec hls ((?x Int) (?y Int) (?v Int)) Bool
	(or
		(and (= ?x ?y) (_ emp Int data_t))
		(exists ((?w Int)) (sep (hck ?x ?w ?v) (hls ?w ?y ?v)))
))

(declare-const x0 Int)
(declare-const x1 Int)
(declare-const v0 Int)
(declare-const x2 Int)
(declare-const x3 Int)
(declare-const v2 Int)
(declare-const x4 Int)
(declare-const x5 Int)
(declare-const v4 Int)
(declare-const x6 Int)
(declare-const x7 Int)
(declare-const x8 Int)
(declare-const x9 Int)
(declare-const x10 Int)
(declare-const x11 Int)
(declare-const v10 Int)
(declare-const x12 Int)
(declare-const x13 Int)
(declare-const v12 Int)
(declare-const x14 Int)
(declare-const x15 Int)
(declare-const x16 Int)
(declare-const x17 Int)
(declare-const x18 Int)
(declare-const x19 Int)
(declare-const x20 Int)
(declare-const x21 Int)
(declare-const x22 Int)
(declare-const x23 Int)
(declare-const x24 Int)
(declare-const x25 Int)
(declare-const v24 Int)
(declare-const x26 Int)
(declare-const x27 Int)
(declare-const x28 Int)
(declare-const x29 Int)
(declare-const x30 Int)
(declare-const x31 Int)
(declare-const x32 Int)
(declare-const x33 Int)
(declare-const x34 Int)
(declare-const x35 Int)
(declare-const x36 Int)
(declare-const x37 Int)
(declare-const v36 Int)
(declare-const x38 Int)
(declare-const x39 Int)
(declare-const x40 Int)
(declare-const x41 Int)
(declare-const v40 Int)
(declare-const x42 Int)
(declare-const x43 Int)
(declare-const x44 Int)
(declare-const x45 Int)
(declare-const v44 Int)
(declare-const x46 Int)
(declare-const x47 Int)
(declare-const v46 Int)
(declare-const x48 Int)
(declare-const x49 Int)
(declare-const x50 Int)
(declare-const x51 Int)
(declare-const x52 Int)
(declare-const x53 Int)
(declare-const x54 Int)
(declare-const x55 Int)
(declare-const x56 Int)
(declare-const x57 Int)
(declare-const x58 Int)
(declare-const x59 Int)
(declare-const x60 Int)
(declare-const x61 Int)
(declare-const x62 Int)
(declare-const x63 Int)
(declare-const x64 Int)
(declare-const x65 Int)
(declare-const v64 Int)
(declare-const x66 Int)
(declare-const x67 Int)
(declare-const v66 Int)
(declare-const x68 Int)
(declare-const x69 Int)
(declare-const x70 Int)
(declare-const x71 Int)
(declare-const x72 Int)
(declare-const x73 Int)
(declare-const v72 Int)
(declare-const x74 Int)
(declare-const x75 Int)
(declare-const v74 Int)
(declare-const x76 Int)
(declare-const x77 Int)
(declare-const x78 Int)
(declare-const x79 Int)
(declare-const v78 Int)
(declare-const x80 Int)
(declare-const x81 Int)
(declare-const x82 Int)
(declare-const x83 Int)
(declare-const x84 Int)
(declare-const x85 Int)
(declare-const x86 Int)
(declare-const x87 Int)
(declare-const v86 Int)
(declare-const x88 Int)
(declare-const x89 Int)
(declare-const v88 Int)
(declare-const x90 Int)
(declare-const x91 Int)
(declare-const v90 Int)
(declare-const x92 Int)
(declare-const x93 Int)
(declare-const x94 Int)
(declare-const x95 Int)
(declare-const x96 Int)
(declare-const x97 Int)
(declare-const v96 Int)
(declare-const x98 Int)
(declare-const x99 Int)
(declare-const v98 Int)
(declare-const x100 Int)
(declare-const x101 Int)
(declare-const x102 Int)
(declare-const x103 Int)
(declare-const x104 Int)
(declare-const x105 Int)
(declare-const v104 Int)
(declare-const x106 Int)
(declare-const x107 Int)
(declare-const x108 Int)
(declare-const x109 Int)
(declare-const x110 Int)
(declare-const x111 Int)
(declare-const x112 Int)
(declare-const x113 Int)
(declare-const x114 Int)
(declare-const x115 Int)
(declare-const x116 Int)
(declare-const x117 Int)
(declare-const v116 Int)
(declare-const x118 Int)
(declare-const x119 Int)
(declare-const x120 Int)
(declare-const x121 Int)
(declare-const x122 Int)
(declare-const x123 Int)
(declare-const x124 Int)
(declare-const x125 Int)
(declare-const x126 Int)
(declare-const x127 Int)
(declare-const x128 Int)
(declare-const x129 Int)
(declare-const x130 Int)
(declare-const x131 Int)
(declare-const x132 Int)
(declare-const x133 Int)
(declare-const x134 Int)
(declare-const x135 Int)
(declare-const x136 Int)
(declare-const x137 Int)
(declare-const v136 Int)
(declare-const x138 Int)
(declare-const x139 Int)
(declare-const x140 Int)
(declare-const x141 Int)
(declare-const x142 Int)
(declare-const x143 Int)
(declare-const v142 Int)
(declare-const x144 Int)
(declare-const x145 Int)
(declare-const v144 Int)
(declare-const x146 Int)
(declare-const x147 Int)
(declare-const x148 Int)
(declare-const x149 Int)
(declare-const x150 Int)
(declare-const x151 Int)
(declare-const v150 Int)
(declare-const x152 Int)
(declare-const x153 Int)
(declare-const x154 Int)
(declare-const x155 Int)
(declare-const v154 Int)
(declare-const x156 Int)
(declare-const x157 Int)
(declare-const x158 Int)
(declare-const x159 Int)
(declare-const x160 Int)
(declare-const x161 Int)
(declare-const x162 Int)
(declare-const x163 Int)
(declare-const v162 Int)
(declare-const x164 Int)
(declare-const x165 Int)
(declare-const x166 Int)
(declare-const x167 Int)
(declare-const x168 Int)
(declare-const x169 Int)
(declare-const x170 Int)
(declare-const x171 Int)
(declare-const x172 Int)
(declare-const x173 Int)
(declare-const x174 Int)
(declare-const x175 Int)
(declare-const x176 Int)
(declare-const x177 Int)
(declare-const v176 Int)
(declare-const x178 Int)
(declare-const x179 Int)
(declare-const v178 Int)
(declare-const x180 Int)
(declare-const x181 Int)
(declare-const x182 Int)
(declare-const x183 Int)
(declare-const v182 Int)
(declare-const x184 Int)
(declare-const x185 Int)
(declare-const x186 Int)
(declare-const x187 Int)
(declare-const x188 Int)
(declare-const x189 Int)

(assert(and
(distinct x7 x182) (< x172 x81) (< x3 x35) (< x27 x58) (< x174 x123) 
(sep
(hls x0 x1 v0)
(hls x2 x3 v2)
(hls x4 x5 v4)
(pto x6 (c_data_t x7))
(blk x8 x9)
(hls x10 x11 v10)
(hls x12 x13 v12)
(blk x14 x15)
(blk x16 x17)
(pto x18 (c_data_t x19))
(blk x20 x21)
(pto x22 (c_data_t x23))
(hls x24 x25 v24)
(blk x26 x27)
(blk x28 x29)
(blk x30 x31)
(blk x32 x33)
(blk x34 x35)
(hls x36 x37 v36)
(blk x38 x39)
(hls x40 x41 v40)
(pto x42 (c_data_t x43))
(hls x44 x45 v44)
(hls x46 x47 v46)
(pto x48 (c_data_t x49))
(blk x50 x51)
(pto x52 (c_data_t x53))
(pto x54 (c_data_t x55))
(pto x56 (c_data_t x57))
(pto x58 (c_data_t x59))
(pto x60 (c_data_t x61))
(pto x62 (c_data_t x63))
(hls x64 x65 v64)
(hls x66 x67 v66)
(pto x68 (c_data_t x69))
(blk x70 x71)
(hls x72 x73 v72)
(hls x74 x75 v74)
(pto x76 (c_data_t x77))
(hls x78 x79 v78)
(pto x80 (c_data_t x81))
(blk x82 x83)
(blk x84 x85)
(hls x86 x87 v86)
(hls x88 x89 v88)
(hls x90 x91 v90)
(pto x92 (c_data_t x93))
(pto x94 (c_data_t x95))
(hls x96 x97 v96)
(hls x98 x99 v98)
(pto x100 (c_data_t x101))
(blk x102 x103)
(hls x104 x105 v104)
(pto x106 (c_data_t x107))
(blk x108 x109)
(pto x110 (c_data_t x111))
(pto x112 (c_data_t x113))
(pto x114 (c_data_t x115))
(hls x116 x117 v116)
(pto x118 (c_data_t x119))
(pto x120 (c_data_t x121))
(blk x122 x123)
(blk x124 x125)
(pto x126 (c_data_t x127))
(blk x128 x129)
(blk x130 x131)
(blk x132 x133)
(pto x134 (c_data_t x135))
(hls x136 x137 v136)
(blk x138 x139)
(blk x140 x141)
(hls x142 x143 v142)
(hls x144 x145 v144)
(pto x146 (c_data_t x147))
(pto x148 (c_data_t x149))
(hls x150 x151 v150)
(pto x152 (c_data_t x153))
(hls x154 x155 v154)
(blk x156 x157)
(blk x158 x159)
(blk x160 x161)
(hls x162 x163 v162)
(pto x164 (c_data_t x165))
(pto x166 (c_data_t x167))
(blk x168 x169)
(pto x170 (c_data_t x171))
(blk x172 x173)
(blk x174 x175)
(hls x176 x177 v176)
(hls x178 x179 v178)
(blk x180 x181)
(hls x182 x183 v182)
(pto x184 (c_data_t x185))
(pto x186 (c_data_t x187))
(pto x188 (c_data_t x189))
)))

(check-sat)